157
100
47
8
1
13
61
16
75
22
87
9
39
17
10
29
74
1
41
10
13
6
24
55
23
81
18
37
87
27
6
17
71
53
53
19
40
17
48
24
12
54
12
29
9
17
5
81
13
9
37
11
47
74
15
48
65
100
88
44
24
2
56
5
45
5
7
59
14
71
34
5
5
16
31
24
100
26
25
55
76
94
15
49
98
51
54
85
71
18
33
61
8
83
26
76
5
35
59
44
14
13
78
13
50
29
26
56
22
50
45
47
87
30
7
41
54
28
14
28
1
26
37
19
76
12
53
31
59
99
42
30
39
45
46
68
18
12
100
12
95
16
1
32
92
10
53
8
20
56
31
49
88
1
93
1
6
12
80
